PROBLEM NAME: eil51_n7
KNAPSACK DATA TYPE: multiple strongly correlated
DIMENSION: 7
NUMBER OF ITEMS: 6
CAPACITY OF KNAPSACK: 1906
MIN SPEED: 0.1
MAX SPEED: 1
RENTING RATIO: 4.89
EDGE_WEIGHT_TYPE: CEIL_2D
NODE_COORD_SECTION	(INDEX, X, Y):
1	42	57
2	7	38
3	30	48
4	45	35
5	5	6
6	56	37
7	30	40
ITEMS SECTION	(INDEX, PROFIT, WEIGHT, ASSIGNED NODE NUMBER):
1	990	790	3
2	973	773	7
3	882	682	2
4	852	652	5
5	688	488	4
6	311	111	6
